nNurses = 57;
nHours = 40;
minHours = 6;
maxHours = 18;
maxConsec = 16;
maxPresence = 11;
demand = [17, 17, 18, 19, 21, 18, 14, 11, 11, 11, 6, 9, 12, 16, 16, 15, 13, 12, 8, 11, 6, 6, 11, 13, 15, 20, 15, 18, 21, 19, 14, 15, 14, 19, 24, 21, 23, 24, 25, 22];
